
Log started (V12.10.0.0) Tue Apr 20 04:05:08 2021


Problem 'asset.lp' read.
Read time = 0.01 sec. (1.15 ticks)
New value for default parallel thread count: 1
New value for time limit in seconds: 150
Version identifier: 12.10.0.0 | 2019-11-26 | 843d4de
CPXPARAM_Threads                                 1
CPXPARAM_TimeLimit                               150
Found incumbent of value 0.000000 after 0.00 sec. (0.27 ticks)
Tried aggregator 3 times.
MIP Presolve eliminated 5881 rows and 1590 columns.
MIP Presolve modified 7027 coefficients.
Aggregator did 2466 substitutions.
Reduced MIP has 2746 rows, 3381 columns, and 15506 nonzeros.
Reduced MIP has 2998 binaries, 309 generals, 0 SOSs, and 0 indicators.
Presolve time = 0.03 sec. (36.46 ticks)
Probing fixed 167 vars, tightened 15 bounds.
Probing time = 0.03 sec. (20.11 ticks)
Cover probing fixed 0 vars, tightened 12 bounds.
Tried aggregator 1 time.
Detecting symmetries...
MIP Presolve eliminated 211 rows and 204 columns.
MIP Presolve modified 472 coefficients.
Reduced MIP has 2535 rows, 3177 columns, and 14057 nonzeros.
Reduced MIP has 2809 binaries, 294 generals, 0 SOSs, and 0 indicators.
Presolve time = 0.01 sec. (13.19 ticks)
Probing time = 0.01 sec. (3.24 ticks)
Cover probing fixed 0 vars, tightened 1 bounds.
Clique table members: 9183.
Tightened 1 constraints.
MIP emphasis: balance optimality and feasibility.
MIP search method: dynamic search.
Parallel mode: none, using 1 thread.
Root relaxation solution time = 0.08 sec. (119.59 ticks)

        Nodes                                         Cuts/
   Node  Left     Objective  IInf  Best Integer    Best Bound    ItCnt     Gap

*     0+    0                            0.0000      975.0000              --- 
      0     0      923.7928   437        0.0000      923.7928     1314     --- 
      0     0      917.4210   437        0.0000     Cuts: 472     3850     --- 
      0     0      911.6382   437        0.0000     Cuts: 733     6804     --- 
      0     0      909.2160   437        0.0000     Cuts: 733     8028     --- 
*     0+    0                           45.0000      909.2160              --- 
      0     0        cutoff             45.0000      909.2160     8028     --- 
      0     0      908.2191   437       45.0000     Cuts: 706     9288     --- 
      0     0      906.4492   437       45.0000     Cuts: 470    10042     --- 
Detecting symmetries...
      0     0      903.3901   437       45.0000     Cuts: 733    11676     --- 
      0     0      901.8794   437       45.0000     Cuts: 591    12284     --- 
      0     0      900.9046   437       45.0000     Cuts: 566    12852     --- 
      0     0      899.0543   437       45.0000     Cuts: 569    13611     --- 
*     0+    0                           60.0000      899.0543              --- 
      0     0      897.1686   437       60.0000     Cuts: 563    14323     --- 
      0     0      895.9203   437       60.0000     Cuts: 608    14856     --- 
      0     0      894.6345   437       60.0000     Cuts: 476    15567     --- 
*     0+    0                           90.0000      894.6345           894.04%
      0     0      894.3836   437       90.0000     Cuts: 472    15891  893.76%
      0     0      893.7753   437       90.0000     Cuts: 277    16439  893.08%
      0     0      892.8144   437       90.0000     Cuts: 466    17141  892.02%
      0     0      891.5109   437       90.0000     Cuts: 519    17645  890.57%
      0     0      890.3416   437       90.0000     Cuts: 441    18112  889.27%
      0     0      889.4442   437       90.0000     Cuts: 579    18470  888.27%
*     0+    0                          110.0000      889.4442           708.59%
      0     0      888.8711   437      110.0000     Cuts: 458    18919  708.06%
      0     0      887.5588   437      110.0000     Cuts: 633    19902  706.87%
      0     0      886.8475   437      110.0000     Cuts: 733    20822  706.22%
      0     0      885.7366   437      110.0000     Cuts: 709    21947  705.22%
      0     0      884.5684   437      110.0000     Cuts: 654    22904  704.15%
      0     0      883.8981   437      110.0000     Cuts: 733    23758  703.54%
*     0+    0                          130.0000      883.8981           579.92%
      0     0      883.3387   437      130.0000     Cuts: 709    24254  579.49%
      0     0      882.6839   437      130.0000     Cuts: 478    24635  578.99%
      0     0      882.2459   437      130.0000     Cuts: 566    25319  578.65%
      0     0      882.0045   437      130.0000     Cuts: 640    25842  578.47%
      0     0      881.8310   437      130.0000     Cuts: 321    26244  578.33%
*     0+    0                          155.0000      881.8310           468.92%
*     0+    0                          175.0000      881.8310           403.90%
      0     0        cutoff            175.0000      881.8310    26244  403.90%
Detecting symmetries...
      0     2      881.8310   463      175.0000      881.8273    26244  403.90%
Elapsed time = 5.18 sec. (7031.92 ticks, tree = 0.01 MB, solutions = 7)
      5     7      881.4192   431      175.0000      881.7422    28004  403.85%
     18    20      875.8155   416      175.0000      881.7422    29595  403.85%
     23    25      869.5424   452      175.0000      881.7422    32008  403.85%
     28    30      875.0821   405      175.0000      881.7422    34462  403.85%
     30    32      873.1591   429      175.0000      881.7422    35238  403.85%
     35    37      870.8132   449      175.0000      881.7422    37457  403.85%
     40    42      878.5120   422      175.0000      881.7422    38030  403.85%
     47    49      878.4957   432      175.0000      881.7422    39744  403.85%
     55    57      871.2593   425      175.0000      881.7422    41495  403.85%
     65    67      830.6065   373      175.0000      881.7422    45235  403.85%
Elapsed time = 7.59 sec. (10698.68 ticks, tree = 0.81 MB, solutions = 7)
     80    82      822.1907   357      175.0000      881.7422    50793  403.85%
    120   118      664.1125   191      175.0000      881.7422    60621  403.85%
    200   179      836.2129   401      175.0000      881.4660    74369  403.69%
    209   188      830.2347   365      175.0000      881.4660    84254  403.69%
    251   224      775.0318   339      175.0000      881.4660    94252  403.69%
    367   319      880.3670   454      175.0000      881.4660   102516  403.69%
    402   354      881.1910   448      175.0000      881.4553   106010  403.69%
    440   392      864.3091   420      175.0000      881.4553   113478  403.69%
    499   451      810.1829   366      175.0000      881.4553   120097  403.69%

Performing restart 1

Repeating presolve.
Tried aggregator 2 times.
MIP Presolve eliminated 1 rows and 1 columns.
MIP Presolve modified 3959 coefficients.
Aggregator did 1 substitutions.
Reduced MIP has 2533 rows, 3175 columns, and 11826 nonzeros.
Reduced MIP has 2807 binaries, 294 generals, 0 SOSs, and 0 indicators.
Presolve time = 0.01 sec. (13.77 ticks)
Tried aggregator 1 time.
Reduced MIP has 2533 rows, 3175 columns, and 11826 nonzeros.
Reduced MIP has 2807 binaries, 294 generals, 0 SOSs, and 0 indicators.
Presolve time = 0.01 sec. (8.04 ticks)
Represolve time = 0.09 sec. (66.33 ticks)
    506     0      819.6166   496      175.0000     Cuts: 606   129454  368.35%
    506     0      800.6459   496      175.0000     Cuts: 428   131502  357.51%
    506     0      786.6491   496      175.0000     Cuts: 496   133809  349.51%
*   506+    0                          270.0000      786.6491           191.35%
*   506+    0                          280.0000      786.6491           180.95%
    506     0        cutoff            280.0000      786.6491   133809  180.95%
    506     0      779.5968   496      280.0000     Cuts: 469   135244  178.43%
    506     0      777.1965   496      280.0000     Cuts: 442   137050  177.57%
    506     0      776.0060   496      280.0000     Cuts: 300   137855  177.15%
*   506+    0                          300.0000      776.0060           158.67%
    506     0        cutoff            300.0000      776.0060   137855  158.67%
    506     0      774.0741   496      300.0000     Cuts: 250   139148  158.02%
    506     0      773.2930   496      300.0000     Cuts: 241   140037  157.76%
    506     0      772.2416   496      300.0000     Cuts: 246   141029  157.41%
*   506+    0                          340.0000      772.2416           127.13%
    506     0      771.6933   496      340.0000     Cuts: 233   142319  126.97%
    506     0      771.1263   496      340.0000     Cuts: 208   142924  126.80%
    506     0      770.5795   496      340.0000     Cuts: 149   143478  126.64%
*   506+    0                          345.0000      770.5795           123.36%
*   506+    0                          365.0000      770.5795           111.12%
*   506+    0                          370.0000      770.5795           108.26%
*   506+    0                          375.0000      770.5795           105.49%
    506     0      770.1234   496      375.0000     Cuts: 149   144672  105.37%
    506     0      769.7453   496      375.0000     Cuts: 234   145007  105.27%
    506     0      769.4330   496      375.0000     Cuts: 130   145561  105.18%
    506     0      769.2360   496      375.0000     Cuts: 122   145986  105.13%
    506     0      768.7012   496      375.0000     Cuts: 136   146570  104.99%
    506     0      768.4892   496      375.0000     Cuts: 174   146819  104.93%
    506     0      768.4090   496      375.0000     Cuts: 104   147144  104.91%
    506     0      768.3890   496      375.0000     Cuts: 127   147300  104.90%
    506     0      768.3283   496      375.0000      Cuts: 71   147698  104.89%
*   506+    0                          400.0000      768.3283            92.08%
    506     0      768.2793   496      400.0000     Cuts: 113   147981   92.07%
    506     0      768.2117   496      400.0000      Cuts: 92   148289   92.05%
    506     2      768.2117   530      400.0000      768.2113   148289   92.05%
Elapsed time = 33.97 sec. (46096.24 ticks, tree = 0.01 MB, solutions = 16)
    508     4      764.1578   468      400.0000      764.0983   151907   91.02%
    510     6      750.5196   434      400.0000      764.0983   154045   91.02%
    511     7      752.5683   445      400.0000      764.0983   157633   91.02%
    514    10      750.5270   418      400.0000      764.0983   161027   91.02%
    517    13      750.4900   411      400.0000      764.0983   163305   91.02%
    522    18      733.2191   388      400.0000      764.0983   168470   91.02%
    527    23      744.0303   385      400.0000      764.0983   171394   91.02%
    535    31      746.3701   390      400.0000      764.0983   175513   91.02%
    538    34      744.7213   384      400.0000      764.0983   178703   91.02%
    544    40      742.6557   362      400.0000      764.0983   182326   91.02%
Elapsed time = 41.51 sec. (57995.18 ticks, tree = 0.35 MB, solutions = 16)
    547    43      728.5279   357      400.0000      764.0983   184792   91.02%
    553    49      733.6347   358      400.0000      764.0983   189105   91.02%
    560    56      731.4599   341      400.0000      764.0983   192941   91.02%
    567    63      728.0110   326      400.0000      764.0983   195726   91.02%
    578    74      726.5197   335      400.0000      764.0983   198358   91.02%
    591    86      714.9984   318      400.0000      764.0983   201438   91.02%
    612   107      709.0310   314      400.0000      764.0983   204169   91.02%
    626   120      689.7360   311      400.0000      764.0983   206782   91.02%
    646   140      683.7122   301      400.0000      764.0983   211270   91.02%
    666   158      672.5344   263      400.0000      764.0983   216282   91.02%
Elapsed time = 48.04 sec. (68301.98 ticks, tree = 3.17 MB, solutions = 16)
    698   185      647.6918   227      400.0000      764.0983   221700   91.02%
    706   188      743.9710   437      400.0000      751.8061   223997   87.95%
    711   193      724.3715   376      400.0000      751.8061   227754   87.95%
    726   208      713.0586   394      400.0000      751.8061   231183   87.95%
    742   224      706.7909   322      400.0000      751.8061   235000   87.95%
    762   244      699.8470   320      400.0000      751.8061   238479   87.95%
    786   268      696.2290   332      400.0000      751.8061   242075   87.95%
    816   293      662.1834   300      400.0000      751.8061   246486   87.95%
    846   323      654.5079   290      400.0000      751.8061   250643   87.95%
    871   342      741.0180   440      400.0000      751.8061   254628   87.95%
Elapsed time = 54.75 sec. (78743.11 ticks, tree = 7.71 MB, solutions = 16)
    888   359      718.7951   366      400.0000      751.8061   258984   87.95%
    906   377      710.5625   362      400.0000      751.8061   262739   87.95%
    909   380      750.1567   398      400.0000      750.5979   264393   87.65%
    926   397      726.5451   398      400.0000      750.5979   270102   87.65%
    959   430      710.6813   332      400.0000      750.5979   274441   87.65%
   1001   472      689.9197   287      400.0000      750.5979   276816   87.65%
   1066   530      660.7716   264      400.0000      750.5979   280326   87.65%
   1094   553      686.1196   312      400.0000      750.5269   284704   87.63%
   1146   605      642.7224   262      400.0000      750.5269   288141   87.63%
   1218   671      738.8167   394      400.0000      750.5268   292495   87.63%
Elapsed time = 61.95 sec. (89764.85 ticks, tree = 14.17 MB, solutions = 16)
   1223   676      731.8640   375      400.0000      750.5268   297166   87.63%
   1226   679      718.4456   365      400.0000      750.5268   299863   87.63%
   1241   694      698.1221   336      400.0000      750.5268   304598   87.63%
   1266   718      661.5080   320      400.0000      750.5268   308284   87.63%
   1289   740      626.5849   242      400.0000      750.5268   313068   87.63%
   1344   791      594.4699   200      400.0000      750.5268   318005   87.63%
   1446   876        cutoff            400.0000      750.5268   321878   87.63%
   1472   888      747.3672   421      400.0000      750.5123   324823   87.63%
   1487   903      723.7344   373      400.0000      750.5123   329520   87.63%
   1503   919      712.3546   358      400.0000      750.5123   333564   87.63%
Elapsed time = 68.51 sec. (99912.00 ticks, tree = 20.27 MB, solutions = 16)
*  1506+  920                          410.0000      750.5123            83.05%
*  1506+  920                          425.0000      750.5123            76.59%
   1534   950      690.1489   334      425.0000      750.5123   336784   76.59%
   1590  1006      629.1269   224      425.0000      750.5123   340954   76.59%
   1647  1053      740.0316   416      425.0000      750.4763   344702   76.58%
   1659  1065      722.3390   335      425.0000      750.4763   348099   76.58%
   1682  1088      696.0448   310      425.0000      750.4763   352252   76.58%
   1715  1121      680.0262   289      425.0000      750.4763   355992   76.58%
   1744  1150      617.9086   242      425.0000      750.4763   359150   76.58%
   1768  1169      740.5541   366      425.0000      750.1532   363063   76.51%
   1781  1182      701.8765   357      425.0000      750.1532   366690   76.51%
   1808  1208      674.9831   334      425.0000      750.1532   370077   76.51%
Elapsed time = 75.41 sec. (110143.03 ticks, tree = 27.86 MB, solutions = 18)
   1870  1270      645.7631   280      425.0000      750.1532   374357   76.51%
   1927  1321      736.0804   386      425.0000      749.5689   379577   76.37%
   1946  1340      706.3365   366      425.0000      749.5689   383229   76.37%
   1973  1367      685.5731   308      425.0000      749.5689   387764   76.37%
   2011  1400      661.7356   279      425.0000      749.5689   392107   76.37%
   2038  1426      581.5595   239      425.0000      749.5689   395925   76.37%
   2081  1462      729.6850   413      425.0000      749.2101   399441   76.28%
   2091  1472      709.2216   328      425.0000      749.2101   404216   76.28%
   2106  1487      710.9074   359      425.0000      749.2101   408248   76.28%
   2116  1496      678.9724   318      425.0000      749.2101   413487   76.28%
Elapsed time = 83.00 sec. (121263.67 ticks, tree = 35.35 MB, solutions = 18)
   2131  1511      672.6034   314      425.0000      749.2101   417922   76.28%
   2162  1542      642.4714   281      425.0000      749.2101   422038   76.28%
   2197  1571      732.6414   371      425.0000      748.4640   429853   76.11%
   2213  1587      690.9776   336      425.0000      748.4640   434449   76.11%
   2238  1612      639.6089   278      425.0000      748.4640   439091   76.11%
   2285  1659      616.7655   195      425.0000      748.4640   443780   76.11%
   2309  1679      714.6638   328      425.0000      748.2877   448609   76.07%
   2317  1687      702.2941   345      425.0000      748.2877   452224   76.07%
   2346  1715      655.5473   282      425.0000      748.2877   456938   76.07%
   2472  1835      669.4750   316      425.0000      747.6457   473086   75.92%
Elapsed time = 92.27 sec. (134918.02 ticks, tree = 44.29 MB, solutions = 18)
*  2506+ 1867                          450.0000      747.6457            66.14%
   2651  2006      633.1277   289      450.0000      747.3655   489376   66.08%
   2795  2144      688.9959   365      450.0000      747.2067   505705   66.05%
   2859  2207      640.6252   283      450.0000      747.2067   523189   66.05%
   2948  2281      744.5307   415      450.0000      747.1893   541514   66.04%
   3052  2375      667.2990   306      450.0000      747.1294   558508   66.03%
   3207  2520      675.9910   268      450.0000      747.1006   575950   66.02%
   3335  2644      715.5657   337      450.0000      747.0736   593523   66.02%
   3464  2769      720.0997   426      450.0000      747.0080   610366   66.00%
   3499  2804      674.8909   348      450.0000      747.0080   629777   66.00%
   3549  2853      604.4673   225      450.0000      747.0080   649374   66.00%
Elapsed time = 119.53 sec. (174190.37 ticks, tree = 71.32 MB, solutions = 19)
   3658  2958      650.0324   264      450.0000      746.9808   665586   66.00%
   3784  3070      630.4113   305      450.0000      746.5436   681783   65.90%
   3880  3161      687.5557   337      450.0000      746.5156   701182   65.89%
   3968  3245      683.7130   323      450.0000      746.4370   716739   65.87%
   4075  3344      689.9445   410      450.0000      745.5969   733614   65.69%
Starting limited solution polishing.
   4109  3378      625.7882   277      450.0000      745.5969   749211   65.69%
   4175  3444      589.7062   216      450.0000      745.5969   766803   65.69%
*  4206+ 3471                          470.0000      745.5969            58.64%
*  4206+ 3471                          475.0000      745.5969            56.97%
*  4206+ 3471                          480.0000      745.5969            55.33%
*  4206+ 3471                          485.0000      745.5969            53.73%
   4268  3513      734.9187   358      485.0000      745.5768   776280   53.73%
*  4306+ 3538                          505.0000      745.5768            47.64%
*  4306+ 3514                          515.0000      745.5768            44.77%
   4363  3568      720.1953   384      515.0000      744.8697   794970   44.63%
   4406  3610      618.1938   266      515.0000      744.8697   803939   44.63%
Elapsed time = 147.64 sec. (213367.69 ticks, tree = 87.42 MB, solutions = 25)

GUB cover cuts applied:  98
Clique cuts applied:  169
Cover cuts applied:  30
Implied bound cuts applied:  172
Flow cuts applied:  26
Mixed integer rounding cuts applied:  198
Zero-half cuts applied:  102
Lift and project cuts applied:  33
Gomory fractional cuts applied:  11

Root node processing (before b&c):
  Real time             =    5.17 sec. (7019.58 ticks)
Sequential b&c:
  Real time             =  144.83 sec. (209723.83 ticks)
                          ------------
Total (root+branch&cut) =  150.00 sec. (216743.41 ticks)

Solution pool: 26 solutions saved.

MIP - Time limit exceeded, integer feasible:  Objective =  5.1500000000e+02
Current MIP best bound =  7.4463020613e+02 (gap = 229.63, 44.59%)
Solution time =  150.00 sec.  Iterations = 821124  Nodes = 4490 (3689)
Deterministic time = 216743.43 ticks  (1444.94 ticks/sec)


Incumbent solution
Variable Name           Solution Value
F                           515.000000
y19                           1.000000
y147                          1.000000
y177                          1.000000
y148                          1.000000
y92                           1.000000
y196                          1.000000
y29                           1.000000
y15                           1.000000
y34                           1.000000
y153                          1.000000
y185                          1.000000
y18                           1.000000
y43                           1.000000
y239                          1.000000
y39                           1.000000
y339                          1.000000
y150                          1.000000
y241                          1.000000
y155                          1.000000
y76                           1.000000
y211                          1.000000
y270                          1.000000
y20                           1.000000
y23                           1.000000
y162                          1.000000
y77                           1.000000
y119                          1.000000
y187                          1.000000
y312                          1.000000
y11                           1.000000
y328                          1.000000
x72x92x1                      1.000000
x110x196x1                    1.000000
x110x15x1                     1.000000
x200x239x1                    1.000000
x165x19x1                     1.000000
x50x148x1                     1.000000
x285x239x1                    1.000000
x38x15x1                      1.000000
x113x177x1                    1.000000
x72x211x2                     1.000000
x200x196x2                    1.000000
x240x270x2                    1.000000
x264x147x2                    1.000000
x264x29x2                     1.000000
x103x34x2                     1.000000
x146x76x2                     1.000000
x73x76x2                      1.000000
x285x34x2                     1.000000
x124x29x3                     1.000000
x124x153x3                    1.000000
x240x18x3                     1.000000
x12x19x3                      1.000000
x12x147x3                     1.000000
x95x177x3                     1.000000
x95x148x3                     1.000000
x73x92x3                      1.000000
x38x153x3                     1.000000
x19x18x1                      1.000000
x19x43x3                      1.000000
x147x23x2                     1.000000
x147x20x3                     1.000000
x177x185x1                    1.000000
x177x270x3                    1.000000
x148x185x1                    1.000000
x148x211x3                    1.000000
x92x77x1                      1.000000
x92x155x3                     1.000000
x196x162x1                    1.000000
x196x339x2                    1.000000
x29x43x2                      1.000000
x29x339x3                     1.000000
x15x150x1                     2.000000
x34x39x2                      2.000000
x153x241x3                    2.000000
x185x11x1                     1.000000
x185x328x1                    1.000000
x18x312x1                     1.000000
x18x312x3                     1.000000
x43x187x2                     1.000000
x43x187x3                     1.000000
x239x155x1                    1.000000
x239x20x1                     1.000000
x39x0x2                       2.000000
x339x0x2                      1.000000
x339x11x3                     1.000000
x150x0x1                      2.000000
x241x0x3                      2.000000
x155x0x1                      1.000000
x155x0x3                      1.000000
x76x23x2                      1.000000
x76x328x2                     1.000000
x211x119x2                    1.000000
x211x119x3                    1.000000
x270x162x2                    1.000000
x270x77x3                     1.000000
x20x0x1                       1.000000
x20x0x3                       1.000000
x23x0x2                       2.000000
x162x0x1                      1.000000
x162x0x2                      1.000000
x77x0x1                       1.000000
x77x0x3                       1.000000
x119x0x2                      1.000000
x119x0x3                      1.000000
x187x0x2                      1.000000
x187x0x3                      1.000000
x312x0x1                      1.000000
x312x0x3                      1.000000
x11x0x1                       1.000000
x11x0x3                       1.000000
x328x0x1                      1.000000
x328x0x2                      1.000000
s72                           5.985392
s317                          6.400000
s289                          6.420000
s148                          6.888898
s92                           7.421642
z72z92z1                      1.000000
s315                          7.431955
s196                          6.955712
s29                           7.181267
s298                          6.970000
s318                          7.007337
s183                          8.000000
s16                           8.010000
s3                            8.100000
s15                           7.359298
s34                           7.335043
s185                          8.088676
s88                           7.210000
s224                          7.376134
s18                           7.992035
s302                          7.240000
s83                           7.384735
s163                          8.270000
s43                           8.260185
s300                          7.320000
s213                          7.330000
s131                          8.340000
s198                          8.350000
s56                           8.360000
s66                           7.370000
s2                            8.390000
s184                          8.390000
s89                           7.430000
s221                          8.450000
s239                          7.489008
s39                           8.449158
s237                          8.520000
s339                          8.256039
s150                          8.567678
s106                          8.610000
s332                          8.640000
s306                          8.660000
s301                          8.680000
s217                          8.710000
s257                          7.710000
s1                            8.820000
s155                          8.820000
s76                           7.843853
z72z76z2                      1.000000
s211                          8.195637
z72z211z2                     1.000000
s322                          7.850000
s261                          8.870000
s96                           8.890000
z72z96z1                      1.000000
s259                          7.910000
z72z259z2                     1.000000
s270                          7.920000
s20                           8.940000
s23                           8.940000
z72z23z2                      1.000000
s299                          8.950000
s151                          9.070000
z72z151z1                     1.000000
s162                          9.070000
s105                          9.110000
z72z105z2                     1.000000
s77                           9.260000
s119                          9.330000
s187                          9.410000
s168                          9.420000
z72z168z2                     1.000000
s312                          9.430000
s11                           9.460000
s58                           9.460000
z72z58z1                      1.000000
s328                          9.460000
s110                          5.750000
s126                          6.080000
s177                          6.428924
z110z196z1                    1.000000
z110z318z1                    1.000000
z110z15z1                     1.000000
z110z185z1                    1.000000
z110z224z1                    1.000000
z110z83z1                     1.000000
z110z239z1                    1.000000
z110z237z1                    1.000000
z110z150z1                    1.000000
z110z217z1                    1.000000
z110z257z1                    1.000000
z110z96z1                     1.000000
z110z151z1                    1.000000
z110z58z1                     1.000000
s124                          5.900000
s67                           6.370000
s321                          7.314943
z124z29z3                     1.000000
s75                           7.203608
z124z75z3                     1.000000
s153                          7.562688
z124z153z3                    1.000000
s139                          7.310000
s233                          7.350000
s241                          8.810000
z124z241z3                    1.000000
s26                           8.830000
z124z26z3                     1.000000
s200                          5.770000
s147                          7.081008
s234                          7.081797
z200z196z2                    1.000000
z200z163z2                    1.000000
z200z221z2                    1.000000
z200z239z1                    1.000000
z200z39z2                     1.000000
z200z237z1                    1.000000
z200z150z1                    1.000000
z200z301z2                    1.000000
z200z217z1                    1.000000
z200z257z1                    1.000000
z200z76z2                     1.000000
z200z96z1                     1.000000
z200z259z2                    1.000000
z200z23z2                     1.000000
z200z151z1                    1.000000
z200z105z2                    1.000000
z200z168z2                    1.000000
z200z58z1                     1.000000
s240                          5.821042
z240z18z3                     1.000000
z240z76z2                     1.000000
z240z259z2                    1.000000
z240z270z2                    1.000000
z240z23z2                     1.000000
z240z105z2                    1.000000
z240z168z2                    1.000000
s264                          5.670000
s17                           5.880000
z264z147z2                    1.000000
z264z29z2                     1.000000
z264z163z2                    1.000000
z264z300z2                    1.000000
z264z66z2                     1.000000
z264z89z2                     1.000000
z264z221z2                    1.000000
z264z39z2                     1.000000
z264z301z2                    1.000000
z264z76z2                     1.000000
z264z259z2                    1.000000
z264z23z2                     1.000000
z264z105z2                    1.000000
z264z168z2                    1.000000
s12                           4.842320
s206                          5.410000
s40                           5.570000
s19                           6.611101
z12z19z3                      1.000000
s28                           6.964440
z12z147z3                     1.000000
z12z75z3                      1.000000
z12z153z3                     1.000000
z12z139z3                     1.000000
z12z233z3                     1.000000
z12z241z3                     1.000000
z12z26z3                      1.000000
s95                           4.872000
z95z177z3                     1.000000
z95z148z3                     1.000000
z95z75z3                      1.000000
z95z153z3                     1.000000
z95z139z3                     1.000000
z95z233z3                     1.000000
z95z241z3                     1.000000
z95z26z3                      1.000000
s103                          5.079580
z103z34z2                     1.000000
z103z163z2                    1.000000
z103z300z2                    1.000000
z103z66z2                     1.000000
z103z89z2                     1.000000
z103z221z2                    1.000000
z103z39z2                     1.000000
z103z301z2                    1.000000
z103z76z2                     1.000000
z103z259z2                    1.000000
z103z23z2                     1.000000
z103z105z2                    1.000000
z103z168z2                    1.000000
s165                          5.163940
s135                          5.530000
s330                          5.540000
s327                          5.570000
s78                           5.680000
z165z19z1                     1.000000
z165z298z1                    1.000000
z165z318z1                    1.000000
z165z15z1                     1.000000
z165z185z1                    1.000000
z165z224z1                    1.000000
z165z83z1                     1.000000
z165z239z1                    1.000000
z165z237z1                    1.000000
z165z150z1                    1.000000
z165z217z1                    1.000000
z165z257z1                    1.000000
z165z96z1                     1.000000
z165z151z1                    1.000000
z165z58z1                     1.000000
s146                          5.180220
z146z163z2                    1.000000
z146z300z2                    1.000000
z146z89z2                     1.000000
z146z221z2                    1.000000
z146z39z2                     1.000000
z146z301z2                    1.000000
z146z76z2                     1.000000
z146z259z2                    1.000000
z146z23z2                     1.000000
z146z105z2                    1.000000
z146z168z2                    1.000000
s73                           5.337090
z73z92z3                      1.000000
z73z39z2                      1.000000
z73z301z2                     1.000000
z73z241z3                     1.000000
z73z26z3                      1.000000
z73z76z2                      1.000000
z73z259z2                     1.000000
z73z23z2                      1.000000
z73z105z2                     1.000000
z73z168z2                     1.000000
s50                           5.309430
z50z148z1                     1.000000
z50z298z1                     1.000000
z50z318z1                     1.000000
z50z15z1                      1.000000
z50z185z1                     1.000000
z50z224z1                     1.000000
z50z83z1                      1.000000
z50z239z1                     1.000000
z50z237z1                     1.000000
z50z150z1                     1.000000
z50z217z1                     1.000000
z50z257z1                     1.000000
z50z96z1                      1.000000
z50z151z1                     1.000000
z50z58z1                      1.000000
s285                          5.520800
z285z34z2                     1.000000
z285z163z2                    1.000000
z285z300z2                    1.000000
z285z66z2                     1.000000
z285z89z2                     1.000000
z285z221z2                    1.000000
z285z239z1                    1.000000
z285z39z2                     1.000000
z285z237z1                    1.000000
z285z150z1                    1.000000
z285z301z2                    1.000000
z285z217z1                    1.000000
z285z257z1                    1.000000
z285z76z2                     1.000000
z285z96z1                     1.000000
z285z259z2                    1.000000
z285z23z2                     1.000000
z285z151z1                    1.000000
z285z105z2                    1.000000
z285z168z2                    1.000000
z285z58z1                     1.000000
s38                           5.540350
z38z75z3                      1.000000
z38z15z1                      1.000000
z38z153z3                     1.000000
z38z139z3                     1.000000
z38z233z3                     1.000000
z38z239z1                     1.000000
z38z237z1                     1.000000
z38z150z1                     1.000000
z38z217z1                     1.000000
z38z257z1                     1.000000
z38z241z3                     1.000000
z38z26z3                      1.000000
z38z96z1                      1.000000
z38z151z1                     1.000000
z38z58z1                      1.000000
s113                          3.993620
s45                           5.490000
s267                          5.500000
z113z177z1                    1.000000
z113z298z1                    1.000000
z113z318z1                    1.000000
z113z15z1                     1.000000
z113z185z1                    1.000000
z113z224z1                    1.000000
z113z83z1                     1.000000
z113z239z1                    1.000000
z113z237z1                    1.000000
z113z150z1                    1.000000
z113z217z1                    1.000000
z113z257z1                    1.000000
z113z96z1                     1.000000
z113z151z1                    1.000000
z113z58z1                     1.000000
s32                           5.670000
z45z151z1                     1.000000
z45z58z1                      1.000000
z267z151z1                    1.000000
z267z58z1                     1.000000
z135z58z1                     1.000000
z330z58z1                     1.000000
z327z58z1                     1.000000
z78z58z1                      1.000000
z17z168z2                     1.000000
z19z18z1                      1.000000
z19z43z3                      1.000000
z19z58z1                      1.000000
z126z168z2                    1.000000
z126z58z1                     1.000000
z147z20z3                     1.000000
z147z23z2                     1.000000
z147z168z2                    1.000000
z177z185z1                    1.000000
z177z270z3                    1.000000
z177z58z1                     1.000000
z234z168z2                    1.000000
z317z105z2                    1.000000
z148z185z1                    1.000000
z148z211z3                    1.000000
z148z58z1                     1.000000
z92z155z3                     1.000000
z92z77z1                      1.000000
z92z58z1                      1.000000
z196z339z2                    1.000000
z196z162z1                    1.000000
z196z58z1                     1.000000
z29z43z2                      1.000000
z29z339z3                     1.000000
z298z58z1                     1.000000
z318z58z1                     1.000000
z183z58z1                     1.000000
z16z58z1                      1.000000
z15z150z1                     1.000000
z34z39z2                      1.000000
z34z168z2                     1.000000
z153z241z3                    1.000000
z185z11z1                     1.000000
z185z328z1                    1.000000
z18z312z1                     1.000000
z18z312z3                     1.000000
z83z58z1                      1.000000
z163z168z2                    1.000000
z43z187z2                     1.000000
z43z187z3                     1.000000
z239z155z1                    1.000000
z239z20z1                     1.000000
z239z151z1                    1.000000
z339z11z3                     1.000000
z76z23z2                      1.000000
z76z105z2                     1.000000
z76z328z2                     1.000000
z211z119z2                    1.000000
z211z119z3                    1.000000
z259z105z2                    1.000000
z270z162z2                    1.000000
z270z77z3                     1.000000
All other variables in the range 1-7438 are 0.
